NAME lp_typeD_4310
OBJSENSE MAX
ROWS
 N  OBJ
 L  c0      
 L  c1      
 G  c2      
 G  c3      
 G  c4      
 L  c_key_upper
 G  c_key_lower
 G  _chain_constr_1
 G  _chain_constr_2
 G  _chain_constr_3
 G  _chain_cycle
COLUMNS
    x0        OBJ       6.8154351703413807e-01
    x0        c0        1.5493601060334607e+00
    x0        c1        1.6711536761226280e+00
    x0        c2        1.8593140186313435e+00
    x0        c3        1.0642521618276497e+00
    x0        c4        1.7651318373919531e+00
    x0        c_key_upper  1.8422750076683156e+00
    x0        c_key_lower  1.8422750076683156e+00
    x1        OBJ       1.3369014615788615e+00
    x1        c0        1.5461950867199659e+00
    x1        c1        1.56428895293616
    x1        c2        6.7304610303004964e-01
    x1        c3        1.6433134930408675e+00
    x1        c4        1.0813786094356741e+00
    x1        c_key_upper  1.2033717277232594e+00
    x1        c_key_lower  1.2033717277232594e+00
    x2        OBJ       9.8930905303908456e-01
    x2        c0        1.81652717619137
    x2        c1        1.3214398158666829e+00
    x2        c2        1.5705033647051261e+00
    x2        c3        9.7155981013233972e-01
    x2        c4        1.0193709539322198e+00
    x2        c_key_upper  1.5631332299319081e+00
    x2        c_key_lower  1.5631332299319081e+00
    x3        OBJ       7.4089361039767143e-01
    x3        c0        1.1213326008398179e+00
    x3        c1        1.0471298958710116e+00
    x3        c2        1.8024193991287567e+00
    x3        c3        1.0582416258910687e+00
    x3        c4        1.1001194535005974e+00
    x3        c_key_upper  1.3362863405937231e+00
    x3        c_key_lower  1.3362863405937231e+00
    x4        OBJ       7.2244134615038236e-01
    x4        c0        1.4364386113154339e+00
    x4        c1        1.2544738745268571e+00
    x4        c2        5.9566278508933534e-01
    x4        c3        1.4082954651535775e+00
    x4        c4        1.1548248187753734e+00
    x4        c_key_upper  1.5121313381692441e+00
    x4        c_key_lower  1.5121313381692441e+00
    x5        OBJ       9.1246222561201284e-01
    x5        c0        5.0020642779596036e-01
    x5        c1        1.2618512256311640e+00
    x5        c2        1.4335796046687062e+00
    x5        c3        1.1123083683737969e+00
    x5        c4        1.5392005635146790e+00
    x5        c_key_upper  1.1091399452645652e+00
    x5        c_key_lower  1.1091399452645652e+00
    _chain_var_0  _chain_constr_1  -1
    _chain_var_0  _chain_cycle  1
    _chain_var_1  _chain_constr_1  1
    _chain_var_1  _chain_constr_2  -1
    _chain_var_2  _chain_constr_2  1
    _chain_var_2  _chain_constr_3  -1
    _chain_var_3  _chain_constr_3  1
    _chain_var_3  _chain_cycle  -1
RHS
    RHS1      c0        4.5073192481918973e+01
    RHS1      c1        3.4823451594239977e+01
    RHS1      c2        1.2262966130878292e+01
    RHS1      c3        1.0539458075926005e+01
    RHS1      c4        1.2133726274906069e+01
    RHS1      c_key_upper  4.2831687946755075e+01
    RHS1      c_key_lower  2.1415843973377537e+01
    RHS1      _chain_constr_1  10
    RHS1      _chain_constr_2  10
    RHS1      _chain_constr_3  10
    RHS1      _chain_cycle  10
BOUNDS
 UP BND1      x0        10
 UP BND1      x1        10
 UP BND1      x2        10
 UP BND1      x3        10
 UP BND1      x4        10
 UP BND1      x5        10
 UP BND1      _chain_var_0  100
 UP BND1      _chain_var_1  100
 UP BND1      _chain_var_2  100
 UP BND1      _chain_var_3  100
ENDATA
